NAME: line_100_9
TYPE: TSP
COMMENT: line_100_9
DIMENSION: 100
EDGE_WEIGHT_TYPE: EUC_2D
NODE_COORD_SECTION
1 0.0 512.0
2 0.0 112.0
3 0.0 176.0
4 0.0 77.0
5 0.0 392.0
6 0.0 684.0
7 0.0 562.0
8 0.0 280.0
9 0.0 964.0
10 0.0 809.0
11 0.0 357.0
12 0.0 366.0
13 0.0 676.0
14 0.0 767.0
15 0.0 284.0
16 0.0 206.0
17 0.0 970.0
18 0.0 955.0
19 0.0 437.0
20 0.0 839.0
21 0.0 256.0
22 0.0 196.0
23 0.0 673.0
24 0.0 215.0
25 0.0 369.0
26 0.0 47.0
27 0.0 71.0
28 0.0 445.0
29 0.0 196.0
30 0.0 585.0
31 0.0 231.0
32 0.0 640.0
33 0.0 27.0
34 0.0 688.0
35 0.0 825.0
36 0.0 286.0
37 0.0 969.0
38 0.0 142.0
39 0.0 392.0
40 0.0 610.0
41 0.0 122.0
42 0.0 33.0
43 0.0 776.0
44 0.0 409.0
45 0.0 947.0
46 0.0 209.0
47 0.0 795.0
48 0.0 309.0
49 0.0 852.0
50 0.0 667.0
51 0.0 250.0
52 0.0 233.0
53 0.0 767.0
54 0.0 654.0
55 0.0 439.0
56 0.0 75.0
57 0.0 49.0
58 0.0 233.0
59 0.0 274.0
60 0.0 652.0
61 0.0 287.0
62 0.0 97.0
63 0.0 698.0
64 0.0 475.0
65 0.0 497.0
66 0.0 7.0
67 0.0 697.0
68 0.0 955.0
69 0.0 416.0
70 0.0 443.0
71 0.0 206.0
72 0.0 811.0
73 0.0 719.0
74 0.0 487.0
75 0.0 932.0
76 0.0 737.0
77 0.0 273.0
78 0.0 919.0
79 0.0 132.0
80 0.0 656.0
81 0.0 808.0
82 0.0 538.0
83 0.0 812.0
84 0.0 281.0
85 0.0 168.0
86 0.0 775.0
87 0.0 249.0
88 0.0 275.0
89 0.0 380.0
90 0.0 310.0
91 0.0 40.0
92 0.0 693.0
93 0.0 692.0
94 0.0 636.0
95 0.0 268.0
96 0.0 806.0
97 0.0 843.0
98 0.0 801.0
99 0.0 962.0
100 0.0 152.0
